32      4       
15      14      15      16      
0       0       0       0       0       1       2       
9       15      14      15      16      1       3       
4       14      14      15      16      2       4       8       
5       12      7       15      16      1       5       
6       15      14      11      16      2       6       7       
4       15      13      15      16      2       9       12      
5       15      14      15      4       1       10      
10      13      14      14      16      1       9       
4       15      14      15      16      2       11      13      
3       8       14      15      16      2       11      13      
4       4       14      15      16      3       14      15      17      
7       15      14      15      11      3       14      15      17      
5       15      14      2       12      1       14      
2       15      12      6       16      3       16      18      24      
5       6       11      13      16      2       16      24      
3       7       14      15      16      3       19      20      22      
10      15      14      10      8       3       19      20      23      
5       15      14      15      16      3       20      22      23      
10      15      14      15      16      1       21      
5       15      11      15      16      1       25      
8       15      1       13      16      1       25      
5       15      14      15      16      1       25      
5       15      13      15      14      1       25      
3       15      14      15      16      1       25      
1       15      7       15      16      2       26      27      
1       15      11      15      16      2       28      29      
4       15      12      6       16      1       28      
2       15      14      15      16      2       30      31      
9       14      14      15      6       1       30      
6       12      14      15      15      1       32      
8       15      14      15      10      1       32      
0       0       0       0       0       0       
